p cnf 77 254
3 1 0
3 2 0
-1 -2 -3 0
6 -5 0
6 -1 0
5 1 -6 0
-4 6 -7 0
4 -6 -7 0
-4 -6 7 0
4 6 7 0
-8 -3 0
-8 7 0
3 -7 8 0
-9 8 0
-9 -2 0
-8 2 9 0
-12 -10 0
-12 11 0
10 -11 12 0
13 -9 0
13 -12 0
9 12 -13 0
16 -14 0
16 15 0
14 -15 -16 0
-18 -2 0
-18 -17 0
2 17 18 0
19 -18 0
19 -10 0
18 10 -19 0
20 -16 0
20 19 0
16 -19 -20 0
20 3 -21 0
-20 -3 -21 0
20 -3 21 0
-20 3 21 0
22 -16 0
22 17 0
16 -17 -22 0
22 -10 -23 0
-22 10 -23 0
22 10 23 0
-22 -10 23 0
24 21 0
24 -23 0
-21 23 -24 0
25 -22 0
25 -19 0
22 19 -25 0
26 24 0
26 25 0
-24 -25 -26 0
-13 26 -27 0
13 -26 -27 0
-13 -26 27 0
13 26 27 0
-30 29 0
-30 -1 0
-29 1 30 0
11 -30 -31 0
-11 30 -31 0
11 30 31 0
-11 -30 31 0
32 28 0
32 31 0
-28 -31 -32 0
-33 -31 0
-33 3 0
31 -3 33 0
34 33 0
34 4 0
-33 -4 -34 0
-32 34 -35 0
32 -34 -35 0
-32 -34 35 0
32 34 35 0
3 -21 -36 0
-3 21 -36 0
3 21 36 0
-3 -21 36 0
-36 37 -38 0
36 -37 -38 0
-36 -37 38 0
36 37 38 0
-39 35 0
-39 -38 0
-35 38 39 0
-40 -27 0
-40 -39 0
27 39 40 0
-41 37 0
-41 15 0
-37 -15 41 0
-42 -41 0
-42 1 0
41 -1 42 0
-43 40 0
-43 42 0
-40 -42 43 0
15 21 -44 0
-15 -21 -44 0
15 -21 44 0
-15 21 44 0
-8 -30 -45 0
8 30 -45 0
-8 30 45 0
8 -30 45 0
46 -23 0
46 -45 0
23 45 -46 0
-44 46 -47 0
44 -46 -47 0
-44 -46 47 0
44 46 47 0
-48 23 0
-48 -22 0
-23 22 48 0
49 -45 0
49 36 0
45 -36 -49 0
8 49 -50 0
-8 -49 -50 0
8 -49 50 0
-8 49 50 0
52 -25 0
52 -30 0
25 30 -52 0
53 -51 0
53 52 0
51 -52 -53 0
54 50 0
54 -53 0
-50 53 -54 0
-55 48 0
-55 -54 0
-48 54 55 0
-56 47 0
-56 55 0
-47 -55 56 0
30 4 -57 0
-30 -4 -57 0
30 -4 57 0
-30 4 57 0
-56 -57 -58 0
56 57 -58 0
-56 57 58 0
56 -57 58 0
-43 -58 -59 0
43 58 -59 0
-43 58 59 0
43 -58 59 0
-60 -31 0
-60 3 0
31 -3 60 0
-17 -60 -61 0
17 60 -61 0
-17 60 61 0
17 -60 61 0
10 -6 -62 0
-10 6 -62 0
10 6 62 0
-10 -6 62 0
-63 -61 0
-63 62 0
61 -62 63 0
-64 59 0
-64 -63 0
-59 63 64 0
-65 -37 0
-65 -41 0
37 41 65 0
66 49 0
66 22 0
-49 -22 -66 0
65 66 -67 0
-65 -66 -67 0
65 -66 67 0
-65 66 67 0
69 11 0
69 -6 0
-11 6 -69 0
-68 69 -70 0
68 -69 -70 0
-68 -69 70 0
68 69 70 0
-14 -70 -71 0
14 70 -71 0
-14 70 71 0
14 -70 71 0
24 17 -72 0
-24 -17 -72 0
24 -17 72 0
-24 17 72 0
73 -14 0
73 -31 0
14 31 -73 0
72 73 -74 0
-72 -73 -74 0
72 -73 74 0
-72 73 74 0
75 -71 0
75 74 0
71 -74 -75 0
-76 67 0
-76 75 0
-67 -75 76 0
-77 64 0
-77 76 0
-64 -76 77 0
74 43 -72 -75 23 -70 0
70 15 61 -30 0
73 52 -37 72 43 40 0
50 -74 0
75 -17 -52 0
-16 -74 -10 0
-69 -18 0
41 47 -8 68 0
-9 75 62 -77 66 0
-2 62 -8 12 0
-51 71 -40 0
2 40 34 66 26 0
-10 -42 -70 0
-32 -11 -66 68 30 0
-67 -50 -1 68 22 0
44 -42 67 0
52 19 -22 -51 40 -2 0
32 -65 0
-50 -14 17 -2 -39 -25 0
1 21 63 0
34 -20 -11 64 0
16 44 24 0
-39 -68 -11 0
-33 71 -26 -9 -38 6 0
-53 -68 -71 -26 0
46 52 75 22 0
-15 65 -73 24 68 30 0
13 -48 0
54 -23 -27 -9 -32 5 0
76 27 69 19 -66 0
-43 -33 15 -59 22 0
-63 -46 -57 -62 -40 -14 0
-49 -72 -19 -53 0
44 -50 23 77 -15 34 0
-34 29 -41 37 -39 -18 0
61 -74 13 0
59 -62 -63 70 20 32 0
-6 -24 -69 58 20 0
-15 -56 -6 -36 -1 0
25 24 0
-69 18 -73 19 -26 0
-14 -62 50 9 -39 0
77 0
